Maximize
F - f1 - f2

Subject to
F - 8y11 - 8y36 - 8y58 - 4y95 - 4y129 - 4y146 - 4y163 - 2y175 - 0y189 - 4y202 - 8y104 - 4y92 - 6y124 - 4y51 - 8y187 - 8y108 - 4y54 - 8y144 - 8y53 - 2y125 - 2y55 - 6y117 - 8y122 - 2y91 - 6y120 - 2y182 = 0
f1 - 0.005404s11 - 0.005404s36 - 0.005404s58 - 0.005404s95 - 0.005404s129 - 0.005404s146 - 0.005404s163 - 0.005404s175 - 0.005404s189 - 0.005404s202 - 0.005404s104 - 0.005404s92 - 0.005404s124 - 0.005404s51 - 0.005404s187 - 0.005404s108 - 0.005404s54 - 0.005404s144 - 0.005404s53 - 0.005404s125 - 0.005404s55 - 0.005404s117 - 0.005404s122 - 0.005404s91 - 0.005404s120 - 0.005404s182  = 0
f2 - 3.82y11 - 3.34y36 - 3.28y58 - 3.56y95 - 3.38y129 - 3.49y146 - 3.34y163 - 3.67y175 - 3.45y189 - 2.60y202 - 2.39y104 - 2.12y92 - 2.51y124 - 2.29y51 - 2.19y187 - 2.27y108 - 2.24y54 - 2.25y144 - 1.13y53 - 1.12y125 - 1.03y55 - 1.05y117 - 1.06y122 - 0.93y91 - 0.97y120 - 0.84y182 = 0

x153x104x1 + x153x124x1 + x153x108x1 + x153x54x1 + x153x125x1 + x153x55x1 + x153x117x1 + x153x91x1 
<= 2
x189x124x1 + x189x108x1 + x189x54x1 + x189x125x1 + x189x55x1 + x189x117x1 + x189x91x1 
<= 1
x41x104x1 + x41x124x1 + x41x108x1 + x41x54x1 + x41x125x1 + x41x55x1 + x41x117x1 + x41x91x1 
<= 2
x19x104x1 + x19x124x1 + x19x108x1 + x19x54x1 + x19x125x1 + x19x55x1 + x19x117x1 + x19x91x1 
<= 1

x43x202x2 + x43x104x2 + x43x51x2 + x43x144x2 + x43x53x2 + x43x125x2 + x43x120x2 
<= 2
x185x202x2 + x185x104x2 + x185x51x2 + x185x144x2 + x185x53x2 + x185x125x2 + x185x120x2 
<= 2
x67x202x2 + x67x104x2 + x67x51x2 + x67x144x2 + x67x53x2 + x67x125x2 + x67x120x2 
<= 2
x189x92x3 + x189x124x3 + x189x51x3 + x189x187x3 + x189x54x3 + x189x53x3 + x189x55x3 + x189x117x3 + x189x122x3 + x189x91x3 + x189x182x3 
<= 1
x64x58x3 + x64x175x3 + x64x92x3 + x64x124x3 + x64x51x3 + x64x187x3 + x64x54x3 + x64x53x3 + x64x55x3 + x64x117x3 + x64x122x3 + x64x91x3 + x64x182x3 
<= 2
x14x175x3 + x14x92x3 + x14x124x3 + x14x51x3 + x14x187x3 + x14x54x3 + x14x53x3 + x14x55x3 + x14x117x3 + x14x122x3 + x14x91x3 + x14x182x3 
<= 2
x19x92x3 + x19x124x3 + x19x51x3 + x19x187x3 + x19x54x3 + x19x53x3 + x19x55x3 + x19x117x3 + x19x122x3 + x19x91x3 + x19x182x3 
<= 1


- x11x125x1 - x11x55x1 - x11x117x1 - x11x91x1 
= 0


- x11x53x3 - x11x55x3 - x11x117x3 - x11x122x3 - x11x91x3 - x11x182x3 
= 0




- x36x53x3 - x36x55x3 - x36x117x3 - x36x122x3 - x36x91x3 - x36x182x3 
= 0



x64x58x3 
- x58x0x3
- x58x53x3 - x58x55x3 - x58x117x3 - x58x122x3 - x58x91x3 - x58x182x3 
= 0


- x95x125x1 - x95x55x1 - x95x117x1 - x95x91x1 
= 0





- x129x144x2 - x129x53x2 - x129x125x2 - x129x120x2 
= 0




- x146x144x2 - x146x53x2 - x146x125x2 - x146x120x2 
= 0

- x146x53x3 - x146x55x3 - x146x117x3 - x146x122x3 - x146x91x3 - x146x182x3 
= 0



- x163x144x2 - x163x53x2 - x163x125x2 - x163x120x2 
= 0




x64x175x3 + x14x175x3 
- x175x0x3
- x175x124x3 - x175x54x3 - x175x53x3 - x175x55x3 - x175x117x3 - x175x122x3 - x175x91x3 - x175x182x3 
= 0


- x189x125x1 - x189x55x1 - x189x117x1 - x189x91x1 
= 0


- x189x53x3 - x189x55x3 - x189x117x3 - x189x122x3 - x189x91x3 - x189x182x3 
= 0


x43x202x2 + x185x202x2 + x67x202x2 
- x202x0x2
- x202x104x2 - x202x51x2 - x202x144x2 - x202x53x2 - x202x125x2 - x202x120x2 
= 0


x153x104x1 + x41x104x1 + x19x104x1 
- x104x0x1
- x104x124x1 - x104x108x1 - x104x54x1 - x104x125x1 - x104x55x1 - x104x117x1 - x104x91x1 
= 0
x43x104x2 + x185x104x2 + x67x104x2 + x202x104x2 
- x104x0x2
- x104x51x2 - x104x144x2 - x104x53x2 - x104x125x2 - x104x120x2 
= 0




x189x92x3 + x64x92x3 + x14x92x3 + x19x92x3 
- x92x0x3
- x92x187x3 - x92x54x3 - x92x53x3 - x92x55x3 - x92x117x3 - x92x122x3 - x92x91x3 - x92x182x3 
= 0

x153x124x1 + x189x124x1 + x41x124x1 + x19x124x1 + x104x124x1 
- x124x0x1
- x124x108x1 - x124x54x1 - x124x125x1 - x124x55x1 - x124x117x1 - x124x91x1 
= 0

x189x124x3 + x64x124x3 + x14x124x3 + x19x124x3 + x175x124x3 
- x124x0x3
- x124x54x3 - x124x53x3 - x124x55x3 - x124x117x3 - x124x122x3 - x124x91x3 - x124x182x3 
= 0


x43x51x2 + x185x51x2 + x67x51x2 + x202x51x2 + x104x51x2 
- x51x0x2
- x51x144x2 - x51x53x2 - x51x125x2 - x51x120x2 
= 0
x189x51x3 + x64x51x3 + x14x51x3 + x19x51x3 
- x51x0x3
- x51x187x3 - x51x54x3 - x51x53x3 - x51x55x3 - x51x117x3 - x51x122x3 - x51x91x3 - x51x182x3 
= 0



x189x187x3 + x64x187x3 + x14x187x3 + x19x187x3 + x92x187x3 + x51x187x3 
- x187x0x3
- x187x54x3 - x187x53x3 - x187x55x3 - x187x117x3 - x187x122x3 - x187x91x3 - x187x182x3 
= 0

x153x108x1 + x189x108x1 + x41x108x1 + x19x108x1 + x104x108x1 + x124x108x1 
- x108x0x1
- x108x54x1 - x108x125x1 - x108x55x1 - x108x117x1 - x108x91x1 
= 0



x153x54x1 + x189x54x1 + x41x54x1 + x19x54x1 + x104x54x1 + x124x54x1 + x108x54x1 
- x54x0x1
- x54x125x1 - x54x55x1 - x54x117x1 - x54x91x1 
= 0

x189x54x3 + x64x54x3 + x14x54x3 + x19x54x3 + x175x54x3 + x92x54x3 + x124x54x3 + x51x54x3 + x187x54x3 
- x54x0x3
- x54x53x3 - x54x55x3 - x54x117x3 - x54x122x3 - x54x91x3 - x54x182x3 
= 0


x43x144x2 + x185x144x2 + x67x144x2 + x129x144x2 + x146x144x2 + x163x144x2 + x202x144x2 + x104x144x2 + x51x144x2 
- x144x0x2
- x144x53x2 - x144x125x2 - x144x120x2 
= 0



x43x53x2 + x185x53x2 + x67x53x2 + x129x53x2 + x146x53x2 + x163x53x2 + x202x53x2 + x104x53x2 + x51x53x2 + x144x53x2 
- x53x0x2
- x53x125x2 
= 0
x189x53x3 + x64x53x3 + x14x53x3 + x19x53x3 + x11x53x3 + x36x53x3 + x58x53x3 + x146x53x3 + x175x53x3 + x189x53x3 + x92x53x3 + x124x53x3 + x51x53x3 + x187x53x3 + x54x53x3 
- x53x0x3
- x53x55x3 - x53x117x3 - x53x122x3 - x53x91x3 - x53x182x3 
= 0

x153x125x1 + x189x125x1 + x41x125x1 + x19x125x1 + x11x125x1 + x95x125x1 + x189x125x1 + x104x125x1 + x124x125x1 + x108x125x1 + x54x125x1 
- x125x0x1
- x125x91x1 
= 0
x43x125x2 + x185x125x2 + x67x125x2 + x129x125x2 + x146x125x2 + x163x125x2 + x202x125x2 + x104x125x2 + x51x125x2 + x144x125x2 + x53x125x2 
- x125x0x2

= 0


x153x55x1 + x189x55x1 + x41x55x1 + x19x55x1 + x11x55x1 + x95x55x1 + x189x55x1 + x104x55x1 + x124x55x1 + x108x55x1 + x54x55x1 
- x55x0x1
- x55x91x1 
= 0

x189x55x3 + x64x55x3 + x14x55x3 + x19x55x3 + x11x55x3 + x36x55x3 + x58x55x3 + x146x55x3 + x175x55x3 + x189x55x3 + x92x55x3 + x124x55x3 + x51x55x3 + x187x55x3 + x54x55x3 + x53x55x3 
- x55x0x3
- x55x122x3 - x55x91x3 - x55x182x3 
= 0

x153x117x1 + x189x117x1 + x41x117x1 + x19x117x1 + x11x117x1 + x95x117x1 + x189x117x1 + x104x117x1 + x124x117x1 + x108x117x1 + x54x117x1 
- x117x0x1
- x117x91x1 
= 0

x189x117x3 + x64x117x3 + x14x117x3 + x19x117x3 + x11x117x3 + x36x117x3 + x58x117x3 + x146x117x3 + x175x117x3 + x189x117x3 + x92x117x3 + x124x117x3 + x51x117x3 + x187x117x3 + x54x117x3 + x53x117x3 
- x117x0x3
- x117x122x3 - x117x91x3 - x117x182x3 
= 0



x189x122x3 + x64x122x3 + x14x122x3 + x19x122x3 + x11x122x3 + x36x122x3 + x58x122x3 + x146x122x3 + x175x122x3 + x189x122x3 + x92x122x3 + x124x122x3 + x51x122x3 + x187x122x3 + x54x122x3 + x53x122x3 + x55x122x3 + x117x122x3 
- x122x0x3
- x122x182x3 
= 0

x153x91x1 + x189x91x1 + x41x91x1 + x19x91x1 + x11x91x1 + x95x91x1 + x189x91x1 + x104x91x1 + x124x91x1 + x108x91x1 + x54x91x1 + x125x91x1 + x55x91x1 + x117x91x1 
- x91x0x1

= 0

x189x91x3 + x64x91x3 + x14x91x3 + x19x91x3 + x11x91x3 + x36x91x3 + x58x91x3 + x146x91x3 + x175x91x3 + x189x91x3 + x92x91x3 + x124x91x3 + x51x91x3 + x187x91x3 + x54x91x3 + x53x91x3 + x55x91x3 + x117x91x3 
- x91x0x3
- x91x182x3 
= 0


x43x120x2 + x185x120x2 + x67x120x2 + x129x120x2 + x146x120x2 + x163x120x2 + x202x120x2 + x104x120x2 + x51x120x2 + x144x120x2 
- x120x0x2

= 0




x189x182x3 + x64x182x3 + x14x182x3 + x19x182x3 + x11x182x3 + x36x182x3 + x58x182x3 + x146x182x3 + x175x182x3 + x189x182x3 + x92x182x3 + x124x182x3 + x51x182x3 + x187x182x3 + x54x182x3 + x53x182x3 + x55x182x3 + x117x182x3 + x122x182x3 + x91x182x3 
- x182x0x3

= 0

1y11 = 0
1y11 = 0
2y36 = 0
2y58 - x64x58x3 = 0
2y95 = 0
2y129 = 0
1y146 = 0
1y146 = 0
2y163 = 0
2y175 - x64x175x3 - x14x175x3 = 0
1y189 = 0
1y189 = 0
2y202 - x43x202x2 - x185x202x2 - x67x202x2 = 0
1y104 - x153x104x1 - x41x104x1 - x19x104x1 = 0
1y104 - x43x104x2 - x185x104x2 - x67x104x2 - x202x104x2 = 0
2y92 - x189x92x3 - x64x92x3 - x14x92x3 - x19x92x3 = 0
1y124 - x153x124x1 - x189x124x1 - x41x124x1 - x19x124x1 - x104x124x1 = 0
1y124 - x189x124x3 - x64x124x3 - x14x124x3 - x19x124x3 - x175x124x3 = 0
1y51 - x43x51x2 - x185x51x2 - x67x51x2 - x202x51x2 - x104x51x2 = 0
1y51 - x189x51x3 - x64x51x3 - x14x51x3 - x19x51x3 = 0
2y187 - x189x187x3 - x64x187x3 - x14x187x3 - x19x187x3 - x92x187x3 - x51x187x3 = 0
2y108 - x153x108x1 - x189x108x1 - x41x108x1 - x19x108x1 - x104x108x1 - x124x108x1 = 0
1y54 - x153x54x1 - x189x54x1 - x41x54x1 - x19x54x1 - x104x54x1 - x124x54x1 - x108x54x1 = 0
1y54 - x189x54x3 - x64x54x3 - x14x54x3 - x19x54x3 - x175x54x3 - x92x54x3 - x124x54x3 - x51x54x3 - x187x54x3 = 0
2y144 - x43x144x2 - x185x144x2 - x67x144x2 - x129x144x2 - x146x144x2 - x163x144x2 - x202x144x2 - x104x144x2 - x51x144x2 = 0
1y53 - x43x53x2 - x185x53x2 - x67x53x2 - x129x53x2 - x146x53x2 - x163x53x2 - x202x53x2 - x104x53x2 - x51x53x2 - x144x53x2 = 0
1y53 - x189x53x3 - x64x53x3 - x14x53x3 - x19x53x3 - x11x53x3 - x36x53x3 - x58x53x3 - x146x53x3 - x175x53x3 - x189x53x3 - x92x53x3 - x124x53x3 - x51x53x3 - x187x53x3 - x54x53x3 = 0
1y125 - x153x125x1 - x189x125x1 - x41x125x1 - x19x125x1 - x11x125x1 - x95x125x1 - x189x125x1 - x104x125x1 - x124x125x1 - x108x125x1 - x54x125x1 = 0
1y125 - x43x125x2 - x185x125x2 - x67x125x2 - x129x125x2 - x146x125x2 - x163x125x2 - x202x125x2 - x104x125x2 - x51x125x2 - x144x125x2 - x53x125x2 = 0
1y55 - x153x55x1 - x189x55x1 - x41x55x1 - x19x55x1 - x11x55x1 - x95x55x1 - x189x55x1 - x104x55x1 - x124x55x1 - x108x55x1 - x54x55x1 = 0
1y55 - x189x55x3 - x64x55x3 - x14x55x3 - x19x55x3 - x11x55x3 - x36x55x3 - x58x55x3 - x146x55x3 - x175x55x3 - x189x55x3 - x92x55x3 - x124x55x3 - x51x55x3 - x187x55x3 - x54x55x3 - x53x55x3 = 0
1y117 - x153x117x1 - x189x117x1 - x41x117x1 - x19x117x1 - x11x117x1 - x95x117x1 - x189x117x1 - x104x117x1 - x124x117x1 - x108x117x1 - x54x117x1 = 0
1y117 - x189x117x3 - x64x117x3 - x14x117x3 - x19x117x3 - x11x117x3 - x36x117x3 - x58x117x3 - x146x117x3 - x175x117x3 - x189x117x3 - x92x117x3 - x124x117x3 - x51x117x3 - x187x117x3 - x54x117x3 - x53x117x3 = 0
2y122 - x189x122x3 - x64x122x3 - x14x122x3 - x19x122x3 - x11x122x3 - x36x122x3 - x58x122x3 - x146x122x3 - x175x122x3 - x189x122x3 - x92x122x3 - x124x122x3 - x51x122x3 - x187x122x3 - x54x122x3 - x53x122x3 - x55x122x3 - x117x122x3 = 0
1y91 - x153x91x1 - x189x91x1 - x41x91x1 - x19x91x1 - x11x91x1 - x95x91x1 - x189x91x1 - x104x91x1 - x124x91x1 - x108x91x1 - x54x91x1 - x125x91x1 - x55x91x1 - x117x91x1 = 0
1y91 - x189x91x3 - x64x91x3 - x14x91x3 - x19x91x3 - x11x91x3 - x36x91x3 - x58x91x3 - x146x91x3 - x175x91x3 - x189x91x3 - x92x91x3 - x124x91x3 - x51x91x3 - x187x91x3 - x54x91x3 - x53x91x3 - x55x91x3 - x117x91x3 = 0
2y120 - x43x120x2 - x185x120x2 - x67x120x2 - x129x120x2 - x146x120x2 - x163x120x2 - x202x120x2 - x104x120x2 - x51x120x2 - x144x120x2 = 0
2y182 - x189x182x3 - x64x182x3 - x14x182x3 - x19x182x3 - x11x182x3 - x36x182x3 - x58x182x3 - x146x182x3 - x175x182x3 - x189x182x3 - x92x182x3 - x124x182x3 - x51x182x3 - x187x182x3 - x54x182x3 - x53x182x3 - x55x182x3 - x117x182x3 - x122x182x3 - x91x182x3 = 0

s153 - s104 + 6.605600z153z104z1 <= 5.23
s153 - s124 + 6.623225z153z124z1 <= 5.23
s153 - s108 + 6.627550z153z108z1 <= 5.23
s153 - s54 + 6.631884z153z54z1 <= 5.23
s153 - s125 + 6.723930z153z125z1 <= 5.23
s153 - s55 + 6.703321z153z55z1 <= 5.23
s153 - s117 + 6.714988z153z117z1 <= 5.23
s153 - s91 + 6.701610z153z91z1 <= 5.23
s189 - s92 + 7.173748z189z92z3 <= 5.88
s189 - s124 + 7.172616z189z124z1 <= 5.88
s189 - s124 + 7.172616z189z124z3 <= 5.88
s189 - s51 + 7.182722z189z51z3 <= 5.88
s189 - s187 + 7.192006z189z187z3 <= 5.88
s189 - s108 + 7.191651z189z108z1 <= 5.88
s189 - s54 + 7.197628z189z54z1 <= 5.88
s189 - s54 + 7.197628z189z54z3 <= 5.88
s189 - s53 + 7.335889z189z53z3 <= 5.88
s189 - s125 + 7.343408z189z125z1 <= 5.88
s189 - s55 + 7.333159z189z55z1 <= 5.88
s189 - s55 + 7.333159z189z55z3 <= 5.88
s189 - s117 + 7.340963z189z117z1 <= 5.88
s189 - s117 + 7.340963z189z117z3 <= 5.88
s189 - s122 + 7.356607z189z122z3 <= 5.88
s189 - s91 + 7.338795z189z91z1 <= 5.88
s189 - s91 + 7.338795z189z91z3 <= 5.88
s189 - s182 + 7.282857z189z182z3 <= 5.88
s43 - s202 + 6.847587z43z202z2 <= 5.17
s43 - s104 + 6.835515z43z104z2 <= 5.17
s43 - s51 + 6.841628z43z51z2 <= 5.17
s43 - s144 + 6.881881z43z144z2 <= 5.17
s43 - s53 + 6.857662z43z53z2 <= 5.17
s43 - s125 + 6.866951z43z125z2 <= 5.17
s43 - s120 + 6.692003z43z120z2 <= 5.17
s41 - s104 + 6.859746z41z104z1 <= 5.18
s41 - s124 + 6.883814z41z124z1 <= 5.18
s41 - s108 + 6.873670z41z108z1 <= 5.18
s41 - s54 + 6.875691z41z54z1 <= 5.18
s41 - s125 + 6.884700z41z125z1 <= 5.18
s41 - s55 + 6.853321z41z55z1 <= 5.18
s41 - s117 + 6.868089z41z117z1 <= 5.18
s41 - s91 + 6.840823z41z91z1 <= 5.18
s64 - s58 + 6.422221z64z58z3 <= 5.07
s64 - s175 + 6.436602z64z175z3 <= 5.07
s64 - s92 + 6.654828z64z92z3 <= 5.07
s64 - s124 + 6.623117z64z124z3 <= 5.07
s64 - s51 + 6.648165z64z51z3 <= 5.07
s64 - s187 + 6.661304z64z187z3 <= 5.07
s64 - s54 + 6.661752z64z54z3 <= 5.07
s64 - s53 + 6.829689z64z53z3 <= 5.07
s64 - s55 + 6.832019z64z55z3 <= 5.07
s64 - s117 + 6.837380z64z117z3 <= 5.07
s64 - s122 + 6.849215z64z122z3 <= 5.07
s64 - s91 + 6.840981z64z91z3 <= 5.07
s64 - s182 + 6.797690z64z182z3 <= 5.07
s185 - s202 + 6.675464z185z202z2 <= 5.15
s185 - s104 + 6.700975z185z104z2 <= 5.15
s185 - s51 + 6.720963z185z51z2 <= 5.15
s185 - s144 + 6.749646z185z144z2 <= 5.15
s185 - s53 + 6.902499z185z53z2 <= 5.15
s185 - s125 + 6.908711z185z125z2 <= 5.15
s185 - s120 + 6.849689z185z120z2 <= 5.15
s14 - s175 + 6.616342z14z175z3 <= 5.27
s14 - s92 + 6.832294z14z92z3 <= 5.27
s14 - s124 + 6.801463z14z124z3 <= 5.27
s14 - s51 + 6.826105z14z51z3 <= 5.27
s14 - s187 + 6.839152z14z187z3 <= 5.27
s14 - s54 + 6.839771z14z54z3 <= 5.27
s14 - s53 + 7.006940z14z53z3 <= 5.27
s14 - s55 + 7.009095z14z55z3 <= 5.27
s14 - s117 + 7.014544z14z117z3 <= 5.27
s14 - s122 + 7.026522z14z122z3 <= 5.27
s14 - s91 + 7.017947z14z91z3 <= 5.27
s14 - s182 + 6.974272z14z182z3 <= 5.27
s67 - s202 + 6.999522z67z202z2 <= 5.29
s67 - s104 + 6.985786z67z104z2 <= 5.29
s67 - s51 + 6.990815z67z51z2 <= 5.29
s67 - s144 + 7.030210z67z144z2 <= 5.29
s67 - s53 + 6.994524z67z53z2 <= 5.29
s67 - s125 + 7.003682z67z125z2 <= 5.29
s67 - s120 + 6.827672z67z120z2 <= 5.29
s19 - s104 + 7.103990z19z104z1 <= 5.36
s19 - s92 + 7.070876z19z92z3 <= 5.36
s19 - s124 + 7.128901z19z124z1 <= 5.36
s19 - s124 + 7.128901z19z124z3 <= 5.36
s19 - s51 + 7.108205z19z51z3 <= 5.36
s19 - s187 + 7.104829z19z187z3 <= 5.36
s19 - s108 + 7.116210z19z108z1 <= 5.36
s19 - s54 + 7.117771z19z54z1 <= 5.36
s19 - s54 + 7.117771z19z54z3 <= 5.36
s19 - s53 + 7.102280z19z53z3 <= 5.36
s19 - s125 + 7.111299z19z125z1 <= 5.36
s19 - s55 + 7.078833z19z55z1 <= 5.36
s19 - s55 + 7.078833z19z55z3 <= 5.36
s19 - s117 + 7.093727z19z117z1 <= 5.36
s19 - s117 + 7.093727z19z117z3 <= 5.36
s19 - s122 + 7.117683z19z122z3 <= 5.36
s19 - s91 + 7.064731z19z91z1 <= 5.36
s19 - s91 + 7.064731z19z91z3 <= 5.36
s19 - s182 + 6.939019z19z182z3 <= 5.36
s11 - s53 + 7.646712z11z53z3 <= 6.16
s11 - s125 + 7.653513z11z125z1 <= 6.16
s11 - s55 + 7.647078z11z55z1 <= 6.16
s11 - s55 + 7.647078z11z55z3 <= 6.16
s11 - s117 + 7.653378z11z117z1 <= 6.16
s11 - s117 + 7.653378z11z117z3 <= 6.16
s11 - s122 + 7.666842z11z122z3 <= 6.16
s11 - s91 + 7.654952z11z91z1 <= 6.16
s11 - s91 + 7.654952z11z91z3 <= 6.16
s11 - s182 + 7.611171z11z182z3 <= 6.16
s36 - s53 + 7.846603z36z53z3 <= 6.41
s36 - s55 + 7.844153z36z55z3 <= 6.41
s36 - s117 + 7.851814z36z117z3 <= 6.41
s36 - s122 + 7.867287z36z122z3 <= 6.41
s36 - s91 + 7.850050z36z91z3 <= 6.41
s36 - s182 + 7.796494z36z182z3 <= 6.41
s58 - s53 + 7.862585z58z53z3 <= 6.44
s58 - s55 + 7.860476z58z55z3 <= 6.44
s58 - s117 + 7.867967z58z117z3 <= 6.44
s58 - s122 + 7.883221z58z122z3 <= 6.44
s58 - s91 + 7.866667z58z91z3 <= 6.44
s58 - s182 + 7.815470z58z182z3 <= 6.44
s95 - s125 + 7.756667z95z125z1 <= 6.31
s95 - s55 + 7.751261z95z55z1 <= 6.31
s95 - s117 + 7.757114z95z117z1 <= 6.31
s95 - s91 + 7.759840z95z91z1 <= 6.31
s129 - s144 + 7.672423z129z144z2 <= 6.38
s129 - s53 + 7.800212z129z53z2 <= 6.38
s129 - s125 + 7.807136z129z125z2 <= 6.38
s129 - s120 + 7.745209z129z120z2 <= 6.38
s146 - s144 + 7.645030z146z144z2 <= 6.32
s146 - s53 + 7.767909z146z53z2 <= 6.32
s146 - s53 + 7.767909z146z53z3 <= 6.32
s146 - s125 + 7.775095z146z125z2 <= 6.32
s146 - s55 + 7.766716z146z55z3 <= 6.32
s146 - s117 + 7.773775z146z117z3 <= 6.32
s146 - s122 + 7.788378z146z122z3 <= 6.32
s146 - s91 + 7.773530z146z91z3 <= 6.32
s146 - s120 + 7.703783z146z120z2 <= 6.32
s146 - s182 + 7.724859z146z182z3 <= 6.32
s163 - s144 + 7.698143z163z144z2 <= 6.40
s163 - s53 + 7.820846z163z53z2 <= 6.40
s163 - s125 + 7.827967z163z125z2 <= 6.40
s163 - s120 + 7.760555z163z120z2 <= 6.40
s175 - s124 + 7.896186z175z124z3 <= 6.70
s175 - s54 + 7.939351z175z54z3 <= 6.70
s175 - s53 + 8.121637z175z53z3 <= 6.70
s175 - s55 + 8.130813z175z55z3 <= 6.70
s175 - s117 + 8.132306z175z117z3 <= 6.70
s175 - s122 + 8.138685z175z122z3 <= 6.70
s175 - s91 + 8.144722z175z91z3 <= 6.70
s175 - s182 + 8.144722z175z182z3 <= 6.70
s189 - s53 + 7.817287z189z53z3 <= 6.36
s189 - s125 + 7.824806z189z125z1 <= 6.36
s189 - s55 + 7.814557z189z55z1 <= 6.36
s189 - s55 + 7.814557z189z55z3 <= 6.36
s189 - s117 + 7.822361z189z117z1 <= 6.36
s189 - s117 + 7.822361z189z117z3 <= 6.36
s189 - s122 + 7.838005z189z122z3 <= 6.36
s189 - s91 + 7.820193z189z91z1 <= 6.36
s189 - s91 + 7.820193z189z91z3 <= 6.36
s189 - s182 + 7.764256z189z182z3 <= 6.36
s202 - s104 + 8.143333z202z104z2 <= 7.11
s202 - s51 + 8.160772z202z51z2 <= 7.11
s202 - s144 + 8.184536z202z144z2 <= 7.11
s202 - s53 + 8.355130z202z53z2 <= 7.11
s202 - s125 + 8.358909z202z125z2 <= 7.11
s202 - s120 + 8.391267z202z120z2 <= 7.11
s104 - s124 + 8.177487z104z124z1 <= 7.15
s104 - s51 + 8.170000z104z51z2 <= 7.15
s104 - s108 + 8.177487z104z108z1 <= 7.15
s104 - s54 + 8.183993z104z54z1 <= 7.15
s104 - s144 + 8.207349z104z144z2 <= 7.15
s104 - s53 + 8.363021z104z53z2 <= 7.15
s104 - s125 + 8.367153z104z125z1 <= 7.15
s104 - s125 + 8.367153z104z125z2 <= 7.15
s104 - s55 + 8.373607z104z55z1 <= 7.15
s104 - s117 + 8.374104z104z117z1 <= 7.15
s104 - s91 + 8.388979z104z91z1 <= 7.15
s104 - s120 + 8.400599z104z120z2 <= 7.15
s92 - s187 + 8.213993z92z187z3 <= 7.18
s92 - s54 + 8.227140z92z54z3 <= 7.18
s92 - s53 + 8.356509z92z53z3 <= 7.18
s92 - s55 + 8.363424z92z55z3 <= 7.18
s92 - s117 + 8.365951z92z117z3 <= 7.18
s92 - s122 + 8.375164z92z122z3 <= 7.18
s92 - s91 + 8.376977z92z91z3 <= 7.18
s92 - s182 + 8.398377z92z182z3 <= 7.18
s124 - s108 + 8.238873z124z108z1 <= 7.20
s124 - s54 + 8.244721z124z54z1 <= 7.20
s124 - s54 + 8.244721z124z54z3 <= 7.20
s124 - s53 + 8.429588z124z53z3 <= 7.20
s124 - s125 + 8.432857z124z125z1 <= 7.20
s124 - s55 + 8.442395z124z55z1 <= 7.20
s124 - s55 + 8.442395z124z55z3 <= 7.20
s124 - s117 + 8.441568z124z117z1 <= 7.20
s124 - s117 + 8.441568z124z117z3 <= 7.20
s124 - s122 + 8.445130z124z122z3 <= 7.20
s124 - s91 + 8.458886z124z91z1 <= 7.20
s124 - s91 + 8.458886z124z91z3 <= 7.20
s124 - s182 + 8.492726z124z182z3 <= 7.20
s51 - s187 + 8.224907z51z187z3 <= 7.21
s51 - s54 + 8.224907z51z54z3 <= 7.21
s51 - s144 + 8.252687z51z144z2 <= 7.21
s51 - s53 + 8.404366z51z53z2 <= 7.21
s51 - s53 + 8.404366z51z53z3 <= 7.21
s51 - s125 + 8.408215z51z125z2 <= 7.21
s51 - s55 + 8.415913z51z55z3 <= 7.21
s51 - s117 + 8.415805z51z117z3 <= 7.21
s51 - s122 + 8.420818z51z122z3 <= 7.21
s51 - s91 + 8.431911z51z91z3 <= 7.21
s51 - s120 + 8.451661z51z120z2 <= 7.21
s51 - s182 + 8.466472z51z182z3 <= 7.21
s187 - s54 + 8.253333z187z54z3 <= 7.24
s187 - s53 + 8.419505z187z53z3 <= 7.24
s187 - s55 + 8.431021z187z55z3 <= 7.24
s187 - s117 + 8.430904z187z117z3 <= 7.24
s187 - s122 + 8.436072z187z122z3 <= 7.24
s187 - s91 + 8.447096z187z91z3 <= 7.24
s187 - s182 + 8.484495z187z182z3 <= 7.24
s108 - s54 + 8.256666z108z54z1 <= 7.25
s108 - s125 + 8.444365z108z125z1 <= 7.25
s108 - s55 + 8.453525z108z55z1 <= 7.25
s108 - s117 + 8.452759z108z117z1 <= 7.25
s108 - s91 + 8.470101z108z91z1 <= 7.25
s54 - s53 + 8.454872z54z53z3 <= 7.27
s54 - s125 + 8.458208z54z125z1 <= 7.27
s54 - s55 + 8.467877z54z55z1 <= 7.27
s54 - s55 + 8.467877z54z55z3 <= 7.27
s54 - s117 + 8.466865z54z117z1 <= 7.27
s54 - s117 + 8.466865z54z117z3 <= 7.27
s54 - s122 + 8.470554z54z122z3 <= 7.27
s54 - s91 + 8.484683z54z91z1 <= 7.27
s54 - s91 + 8.484683z54z91z3 <= 7.27
s54 - s182 + 8.526558z54z182z3 <= 7.27
s144 - s53 + 8.576786z144z53z2 <= 7.39
s144 - s125 + 8.578679z144z125z2 <= 7.39
s144 - s120 + 8.653734z144z120z2 <= 7.39
s53 - s125 + 8.749428z53z125z2 <= 7.74
s53 - s55 + 8.766666z53z55z3 <= 7.74
s53 - s117 + 8.754907z53z117z3 <= 7.74
s53 - s122 + 8.761082z53z122z3 <= 7.74
s53 - s91 + 8.787140z53z91z3 <= 7.74
s53 - s182 + 8.904655z53z182z3 <= 7.74
s125 - s91 + 8.813334z125z91z1 <= 7.76
s55 - s122 + 8.808873z55z122z3 <= 7.77
s55 - s91 + 8.791081z55z91z1 <= 7.77
s55 - s91 + 8.791081z55z91z3 <= 7.77
s55 - s182 + 8.910158z55z182z3 <= 7.77
s117 - s122 + 8.794037z117z122z3 <= 7.77
s117 - s91 + 8.803333z117z91z1 <= 7.77
s117 - s91 + 8.803333z117z91z3 <= 7.77
s117 - s182 + 8.925062z117z182z3 <= 7.77
s122 - s182 + 8.988886z122z182z3 <= 7.81
s91 - s182 + 8.945786z91z182z3 <= 7.82

x153x104x1 - 1z153z104z1 <= 0
x153x124x1 - 1z153z124z1 <= 0
x153x108x1 - 2z153z108z1 <= 0
x153x54x1 - 1z153z54z1 <= 0
x153x125x1 - 1z153z125z1 <= 0
x153x55x1 - 1z153z55z1 <= 0
x153x117x1 - 1z153z117z1 <= 0
x153x91x1 - 1z153z91z1 <= 0
x189x92x3 - 2z189z92z3 <= 0
x189x124x1 - 1z189z124z1 <= 0
x189x124x3 - 1z189z124z3 <= 0
x189x51x3 - 1z189z51z3 <= 0
x189x187x3 - 2z189z187z3 <= 0
x189x108x1 - 2z189z108z1 <= 0
x189x54x1 - 1z189z54z1 <= 0
x189x54x3 - 1z189z54z3 <= 0
x189x53x3 - 1z189z53z3 <= 0
x189x125x1 - 1z189z125z1 <= 0
x189x55x1 - 1z189z55z1 <= 0
x189x55x3 - 1z189z55z3 <= 0
x189x117x1 - 1z189z117z1 <= 0
x189x117x3 - 1z189z117z3 <= 0
x189x122x3 - 2z189z122z3 <= 0
x189x91x1 - 1z189z91z1 <= 0
x189x91x3 - 1z189z91z3 <= 0
x189x182x3 - 2z189z182z3 <= 0
x43x202x2 - 2z43z202z2 <= 0
x43x104x2 - 1z43z104z2 <= 0
x43x51x2 - 1z43z51z2 <= 0
x43x144x2 - 2z43z144z2 <= 0
x43x53x2 - 1z43z53z2 <= 0
x43x125x2 - 1z43z125z2 <= 0
x43x120x2 - 2z43z120z2 <= 0
x41x104x1 - 1z41z104z1 <= 0
x41x124x1 - 1z41z124z1 <= 0
x41x108x1 - 2z41z108z1 <= 0
x41x54x1 - 1z41z54z1 <= 0
x41x125x1 - 1z41z125z1 <= 0
x41x55x1 - 1z41z55z1 <= 0
x41x117x1 - 1z41z117z1 <= 0
x41x91x1 - 1z41z91z1 <= 0
x64x58x3 - 2z64z58z3 <= 0
x64x175x3 - 2z64z175z3 <= 0
x64x92x3 - 2z64z92z3 <= 0
x64x124x3 - 1z64z124z3 <= 0
x64x51x3 - 1z64z51z3 <= 0
x64x187x3 - 2z64z187z3 <= 0
x64x54x3 - 1z64z54z3 <= 0
x64x53x3 - 1z64z53z3 <= 0
x64x55x3 - 1z64z55z3 <= 0
x64x117x3 - 1z64z117z3 <= 0
x64x122x3 - 2z64z122z3 <= 0
x64x91x3 - 1z64z91z3 <= 0
x64x182x3 - 2z64z182z3 <= 0
x185x202x2 - 2z185z202z2 <= 0
x185x104x2 - 1z185z104z2 <= 0
x185x51x2 - 1z185z51z2 <= 0
x185x144x2 - 2z185z144z2 <= 0
x185x53x2 - 1z185z53z2 <= 0
x185x125x2 - 1z185z125z2 <= 0
x185x120x2 - 2z185z120z2 <= 0
x14x175x3 - 2z14z175z3 <= 0
x14x92x3 - 2z14z92z3 <= 0
x14x124x3 - 1z14z124z3 <= 0
x14x51x3 - 1z14z51z3 <= 0
x14x187x3 - 2z14z187z3 <= 0
x14x54x3 - 1z14z54z3 <= 0
x14x53x3 - 1z14z53z3 <= 0
x14x55x3 - 1z14z55z3 <= 0
x14x117x3 - 1z14z117z3 <= 0
x14x122x3 - 2z14z122z3 <= 0
x14x91x3 - 1z14z91z3 <= 0
x14x182x3 - 2z14z182z3 <= 0
x67x202x2 - 2z67z202z2 <= 0
x67x104x2 - 1z67z104z2 <= 0
x67x51x2 - 1z67z51z2 <= 0
x67x144x2 - 2z67z144z2 <= 0
x67x53x2 - 1z67z53z2 <= 0
x67x125x2 - 1z67z125z2 <= 0
x67x120x2 - 2z67z120z2 <= 0
x19x104x1 - 1z19z104z1 <= 0
x19x92x3 - 2z19z92z3 <= 0
x19x124x1 - 1z19z124z1 <= 0
x19x124x3 - 1z19z124z3 <= 0
x19x51x3 - 1z19z51z3 <= 0
x19x187x3 - 2z19z187z3 <= 0
x19x108x1 - 2z19z108z1 <= 0
x19x54x1 - 1z19z54z1 <= 0
x19x54x3 - 1z19z54z3 <= 0
x19x53x3 - 1z19z53z3 <= 0
x19x125x1 - 1z19z125z1 <= 0
x19x55x1 - 1z19z55z1 <= 0
x19x55x3 - 1z19z55z3 <= 0
x19x117x1 - 1z19z117z1 <= 0
x19x117x3 - 1z19z117z3 <= 0
x19x122x3 - 2z19z122z3 <= 0
x19x91x1 - 1z19z91z1 <= 0
x19x91x3 - 1z19z91z3 <= 0
x19x182x3 - 2z19z182z3 <= 0
x11x53x3 - 1z11z53z3 <= 0
x11x125x1 - 1z11z125z1 <= 0
x11x55x1 - 1z11z55z1 <= 0
x11x55x3 - 1z11z55z3 <= 0
x11x117x1 - 1z11z117z1 <= 0
x11x117x3 - 1z11z117z3 <= 0
x11x122x3 - 2z11z122z3 <= 0
x11x91x1 - 1z11z91z1 <= 0
x11x91x3 - 1z11z91z3 <= 0
x11x182x3 - 2z11z182z3 <= 0
x11x0x1 <= 1
x11x0x3 <= 1
x36x53x3 - 1z36z53z3 <= 0
x36x55x3 - 1z36z55z3 <= 0
x36x117x3 - 1z36z117z3 <= 0
x36x122x3 - 2z36z122z3 <= 0
x36x91x3 - 1z36z91z3 <= 0
x36x182x3 - 2z36z182z3 <= 0
x36x0x3 <= 2
x58x53x3 - 1z58z53z3 <= 0
x58x55x3 - 1z58z55z3 <= 0
x58x117x3 - 1z58z117z3 <= 0
x58x122x3 - 2z58z122z3 <= 0
x58x91x3 - 1z58z91z3 <= 0
x58x182x3 - 2z58z182z3 <= 0
x58x0x3 <= 2
x95x125x1 - 1z95z125z1 <= 0
x95x55x1 - 1z95z55z1 <= 0
x95x117x1 - 1z95z117z1 <= 0
x95x91x1 - 1z95z91z1 <= 0
x95x0x1 <= 2
x129x144x2 - 2z129z144z2 <= 0
x129x53x2 - 1z129z53z2 <= 0
x129x125x2 - 1z129z125z2 <= 0
x129x120x2 - 2z129z120z2 <= 0
x129x0x2 <= 2
x146x144x2 - 2z146z144z2 <= 0
x146x53x2 - 1z146z53z2 <= 0
x146x53x3 - 1z146z53z3 <= 0
x146x125x2 - 1z146z125z2 <= 0
x146x55x3 - 1z146z55z3 <= 0
x146x117x3 - 1z146z117z3 <= 0
x146x122x3 - 2z146z122z3 <= 0
x146x91x3 - 1z146z91z3 <= 0
x146x120x2 - 2z146z120z2 <= 0
x146x182x3 - 2z146z182z3 <= 0
x146x0x2 <= 1
x146x0x3 <= 1
x163x144x2 - 2z163z144z2 <= 0
x163x53x2 - 1z163z53z2 <= 0
x163x125x2 - 1z163z125z2 <= 0
x163x120x2 - 2z163z120z2 <= 0
x163x0x2 <= 2
x175x124x3 - 1z175z124z3 <= 0
x175x54x3 - 1z175z54z3 <= 0
x175x53x3 - 1z175z53z3 <= 0
x175x55x3 - 1z175z55z3 <= 0
x175x117x3 - 1z175z117z3 <= 0
x175x122x3 - 2z175z122z3 <= 0
x175x91x3 - 1z175z91z3 <= 0
x175x182x3 - 2z175z182z3 <= 0
x175x0x3 <= 2
x189x53x3 - 1z189z53z3 <= 0
x189x125x1 - 1z189z125z1 <= 0
x189x55x1 - 1z189z55z1 <= 0
x189x55x3 - 1z189z55z3 <= 0
x189x117x1 - 1z189z117z1 <= 0
x189x117x3 - 1z189z117z3 <= 0
x189x122x3 - 2z189z122z3 <= 0
x189x91x1 - 1z189z91z1 <= 0
x189x91x3 - 1z189z91z3 <= 0
x189x182x3 - 2z189z182z3 <= 0
x189x0x1 <= 1
x189x0x3 <= 1
x202x104x2 - 1z202z104z2 <= 0
x202x51x2 - 1z202z51z2 <= 0
x202x144x2 - 2z202z144z2 <= 0
x202x53x2 - 1z202z53z2 <= 0
x202x125x2 - 1z202z125z2 <= 0
x202x120x2 - 2z202z120z2 <= 0
x202x0x2 <= 2
x104x124x1 - 1z104z124z1 <= 0
x104x51x2 - 1z104z51z2 <= 0
x104x108x1 - 2z104z108z1 <= 0
x104x54x1 - 1z104z54z1 <= 0
x104x144x2 - 2z104z144z2 <= 0
x104x53x2 - 1z104z53z2 <= 0
x104x125x1 - 1z104z125z1 <= 0
x104x125x2 - 1z104z125z2 <= 0
x104x55x1 - 1z104z55z1 <= 0
x104x117x1 - 1z104z117z1 <= 0
x104x91x1 - 1z104z91z1 <= 0
x104x120x2 - 2z104z120z2 <= 0
x104x0x1 <= 1
x104x0x2 <= 1
x92x187x3 - 2z92z187z3 <= 0
x92x54x3 - 1z92z54z3 <= 0
x92x53x3 - 1z92z53z3 <= 0
x92x55x3 - 1z92z55z3 <= 0
x92x117x3 - 1z92z117z3 <= 0
x92x122x3 - 2z92z122z3 <= 0
x92x91x3 - 1z92z91z3 <= 0
x92x182x3 - 2z92z182z3 <= 0
x92x0x3 <= 2
x124x108x1 - 2z124z108z1 <= 0
x124x54x1 - 1z124z54z1 <= 0
x124x54x3 - 1z124z54z3 <= 0
x124x53x3 - 1z124z53z3 <= 0
x124x125x1 - 1z124z125z1 <= 0
x124x55x1 - 1z124z55z1 <= 0
x124x55x3 - 1z124z55z3 <= 0
x124x117x1 - 1z124z117z1 <= 0
x124x117x3 - 1z124z117z3 <= 0
x124x122x3 - 2z124z122z3 <= 0
x124x91x1 - 1z124z91z1 <= 0
x124x91x3 - 1z124z91z3 <= 0
x124x182x3 - 2z124z182z3 <= 0
x124x0x1 <= 1
x124x0x3 <= 1
x51x187x3 - 2z51z187z3 <= 0
x51x54x3 - 1z51z54z3 <= 0
x51x144x2 - 2z51z144z2 <= 0
x51x53x2 - 1z51z53z2 <= 0
x51x53x3 - 1z51z53z3 <= 0
x51x125x2 - 1z51z125z2 <= 0
x51x55x3 - 1z51z55z3 <= 0
x51x117x3 - 1z51z117z3 <= 0
x51x122x3 - 2z51z122z3 <= 0
x51x91x3 - 1z51z91z3 <= 0
x51x120x2 - 2z51z120z2 <= 0
x51x182x3 - 2z51z182z3 <= 0
x51x0x2 <= 1
x51x0x3 <= 1
x187x54x3 - 1z187z54z3 <= 0
x187x53x3 - 1z187z53z3 <= 0
x187x55x3 - 1z187z55z3 <= 0
x187x117x3 - 1z187z117z3 <= 0
x187x122x3 - 2z187z122z3 <= 0
x187x91x3 - 1z187z91z3 <= 0
x187x182x3 - 2z187z182z3 <= 0
x187x0x3 <= 2
x108x54x1 - 1z108z54z1 <= 0
x108x125x1 - 1z108z125z1 <= 0
x108x55x1 - 1z108z55z1 <= 0
x108x117x1 - 1z108z117z1 <= 0
x108x91x1 - 1z108z91z1 <= 0
x108x0x1 <= 2
x54x53x3 - 1z54z53z3 <= 0
x54x125x1 - 1z54z125z1 <= 0
x54x55x1 - 1z54z55z1 <= 0
x54x55x3 - 1z54z55z3 <= 0
x54x117x1 - 1z54z117z1 <= 0
x54x117x3 - 1z54z117z3 <= 0
x54x122x3 - 2z54z122z3 <= 0
x54x91x1 - 1z54z91z1 <= 0
x54x91x3 - 1z54z91z3 <= 0
x54x182x3 - 2z54z182z3 <= 0
x54x0x1 <= 1
x54x0x3 <= 1
x144x53x2 - 1z144z53z2 <= 0
x144x125x2 - 1z144z125z2 <= 0
x144x120x2 - 2z144z120z2 <= 0
x144x0x2 <= 2
x53x125x2 - 1z53z125z2 <= 0
x53x55x3 - 1z53z55z3 <= 0
x53x117x3 - 1z53z117z3 <= 0
x53x122x3 - 2z53z122z3 <= 0
x53x91x3 - 1z53z91z3 <= 0
x53x182x3 - 2z53z182z3 <= 0
x53x0x2 <= 1
x53x0x3 <= 1
x125x91x1 - 1z125z91z1 <= 0
x125x0x1 <= 1
x125x0x2 <= 1
x55x122x3 - 2z55z122z3 <= 0
x55x91x1 - 1z55z91z1 <= 0
x55x91x3 - 1z55z91z3 <= 0
x55x182x3 - 2z55z182z3 <= 0
x55x0x1 <= 1
x55x0x3 <= 1
x117x122x3 - 2z117z122z3 <= 0
x117x91x1 - 1z117z91z1 <= 0
x117x91x3 - 1z117z91z3 <= 0
x117x182x3 - 2z117z182z3 <= 0
x117x0x1 <= 1
x117x0x3 <= 1
x122x182x3 - 2z122z182z3 <= 0
x122x0x3 <= 2
x91x182x3 - 2z91z182z3 <= 0
x91x0x1 <= 1
x91x0x3 <= 1
x120x0x2 <= 2
x182x0x3 <= 2

Bounds
s153 = 5.234895
s189 = 5.878602
s43 = 5.173330
s41 = 5.182070
s64 = 5.067820
s185 = 5.147280
s14 = 5.265470
s67 = 5.285660
s19 = 5.362670
6.000000 <= s11 <= 6.160000
6.000000 <= s36 <= 6.410000
6.000000 <= s58 <= 6.440000
6.000000 <= s95 <= 6.310000
6.000000 <= s129 <= 6.380000
6.000000 <= s146 <= 6.320000
6.000000 <= s163 <= 6.400000
6.000000 <= s175 <= 6.700000
6.000000 <= s189 <= 6.360000
6.110000 <= s202 <= 7.110000
6.150000 <= s104 <= 7.150000
6.180000 <= s92 <= 7.180000
6.200000 <= s124 <= 7.200000
6.210000 <= s51 <= 7.210000
6.240000 <= s187 <= 7.240000
6.250000 <= s108 <= 7.250000
6.270000 <= s54 <= 7.270000
6.390000 <= s144 <= 7.390000
6.740000 <= s53 <= 7.740000
6.760000 <= s125 <= 7.760000
6.770000 <= s55 <= 7.770000
6.770000 <= s117 <= 7.770000
6.810000 <= s122 <= 7.810000
6.820000 <= s91 <= 7.820000
6.900000 <= s120 <= 7.900000
7.000000 <= s182 <= 8.000000

General
x153x104x1 x153x124x1 x153x108x1 x153x54x1 x153x125x1 x153x55x1 x153x117x1 x153x91x1 
x189x92x3 x189x124x1 x189x124x3 x189x51x3 x189x187x3 x189x108x1 x189x54x1 x189x54x3 x189x53x3 x189x125x1 x189x55x1 x189x55x3 x189x117x1 x189x117x3 x189x122x3 x189x91x1 x189x91x3 x189x182x3 
x43x202x2 x43x104x2 x43x51x2 x43x144x2 x43x53x2 x43x125x2 x43x120x2 
x41x104x1 x41x124x1 x41x108x1 x41x54x1 x41x125x1 x41x55x1 x41x117x1 x41x91x1 
x64x58x3 x64x175x3 x64x92x3 x64x124x3 x64x51x3 x64x187x3 x64x54x3 x64x53x3 x64x55x3 x64x117x3 x64x122x3 x64x91x3 x64x182x3 
x185x202x2 x185x104x2 x185x51x2 x185x144x2 x185x53x2 x185x125x2 x185x120x2 
x14x175x3 x14x92x3 x14x124x3 x14x51x3 x14x187x3 x14x54x3 x14x53x3 x14x55x3 x14x117x3 x14x122x3 x14x91x3 x14x182x3 
x67x202x2 x67x104x2 x67x51x2 x67x144x2 x67x53x2 x67x125x2 x67x120x2 
x19x104x1 x19x92x3 x19x124x1 x19x124x3 x19x51x3 x19x187x3 x19x108x1 x19x54x1 x19x54x3 x19x53x3 x19x125x1 x19x55x1 x19x55x3 x19x117x1 x19x117x3 x19x122x3 x19x91x1 x19x91x3 x19x182x3 
x11x53x3 x11x125x1 x11x55x1 x11x55x3 x11x117x1 x11x117x3 x11x122x3 x11x91x1 x11x91x3 x11x182x3 x11x0x1 x11x0x3 
x36x53x3 x36x55x3 x36x117x3 x36x122x3 x36x91x3 x36x182x3 x36x0x3 
x58x53x3 x58x55x3 x58x117x3 x58x122x3 x58x91x3 x58x182x3 x58x0x3 
x95x125x1 x95x55x1 x95x117x1 x95x91x1 x95x0x1 
x129x144x2 x129x53x2 x129x125x2 x129x120x2 x129x0x2 
x146x144x2 x146x53x2 x146x53x3 x146x125x2 x146x55x3 x146x117x3 x146x122x3 x146x91x3 x146x120x2 x146x182x3 x146x0x2 x146x0x3 
x163x144x2 x163x53x2 x163x125x2 x163x120x2 x163x0x2 
x175x124x3 x175x54x3 x175x53x3 x175x55x3 x175x117x3 x175x122x3 x175x91x3 x175x182x3 x175x0x3 
x189x53x3 x189x125x1 x189x55x1 x189x55x3 x189x117x1 x189x117x3 x189x122x3 x189x91x1 x189x91x3 x189x182x3 x189x0x1 x189x0x3 
x202x104x2 x202x51x2 x202x144x2 x202x53x2 x202x125x2 x202x120x2 x202x0x2 
x104x124x1 x104x51x2 x104x108x1 x104x54x1 x104x144x2 x104x53x2 x104x125x1 x104x125x2 x104x55x1 x104x117x1 x104x91x1 x104x120x2 x104x0x1 x104x0x2 
x92x187x3 x92x54x3 x92x53x3 x92x55x3 x92x117x3 x92x122x3 x92x91x3 x92x182x3 x92x0x3 
x124x108x1 x124x54x1 x124x54x3 x124x53x3 x124x125x1 x124x55x1 x124x55x3 x124x117x1 x124x117x3 x124x122x3 x124x91x1 x124x91x3 x124x182x3 x124x0x1 x124x0x3 
x51x187x3 x51x54x3 x51x144x2 x51x53x2 x51x53x3 x51x125x2 x51x55x3 x51x117x3 x51x122x3 x51x91x3 x51x120x2 x51x182x3 x51x0x2 x51x0x3 
x187x54x3 x187x53x3 x187x55x3 x187x117x3 x187x122x3 x187x91x3 x187x182x3 x187x0x3 
x108x54x1 x108x125x1 x108x55x1 x108x117x1 x108x91x1 x108x0x1 
x54x53x3 x54x125x1 x54x55x1 x54x55x3 x54x117x1 x54x117x3 x54x122x3 x54x91x1 x54x91x3 x54x182x3 x54x0x1 x54x0x3 
x144x53x2 x144x125x2 x144x120x2 x144x0x2 
x53x125x2 x53x55x3 x53x117x3 x53x122x3 x53x91x3 x53x182x3 x53x0x2 x53x0x3 
x125x91x1 x125x0x1 x125x0x2 
x55x122x3 x55x91x1 x55x91x3 x55x182x3 x55x0x1 x55x0x3 
x117x122x3 x117x91x1 x117x91x3 x117x182x3 x117x0x1 x117x0x3 
x122x182x3 x122x0x3 
x91x182x3 x91x0x1 x91x0x3 
x120x0x2 
x182x0x3 

Binaries
y11 y36 y58 y95 y129 y146 y163 y175 y189 y202 y104 y92 y124 y51 y187 y108 y54 y144 y53 y125 y55 y117 y122 y91 y120 y182 
z153z104z1 z153z124z1 z153z108z1 z153z54z1 z153z125z1 z153z55z1 z153z117z1 z153z91z1 
z189z92z3 z189z124z1 z189z124z3 z189z51z3 z189z187z3 z189z108z1 z189z54z1 z189z54z3 z189z53z3 z189z125z1 z189z55z1 z189z55z3 z189z117z1 z189z117z3 z189z122z3 z189z91z1 z189z91z3 z189z182z3 
z43z202z2 z43z104z2 z43z51z2 z43z144z2 z43z53z2 z43z125z2 z43z120z2 
z41z104z1 z41z124z1 z41z108z1 z41z54z1 z41z125z1 z41z55z1 z41z117z1 z41z91z1 
z64z58z3 z64z175z3 z64z92z3 z64z124z3 z64z51z3 z64z187z3 z64z54z3 z64z53z3 z64z55z3 z64z117z3 z64z122z3 z64z91z3 z64z182z3 
z185z202z2 z185z104z2 z185z51z2 z185z144z2 z185z53z2 z185z125z2 z185z120z2 
z14z175z3 z14z92z3 z14z124z3 z14z51z3 z14z187z3 z14z54z3 z14z53z3 z14z55z3 z14z117z3 z14z122z3 z14z91z3 z14z182z3 
z67z202z2 z67z104z2 z67z51z2 z67z144z2 z67z53z2 z67z125z2 z67z120z2 
z19z104z1 z19z92z3 z19z124z1 z19z124z3 z19z51z3 z19z187z3 z19z108z1 z19z54z1 z19z54z3 z19z53z3 z19z125z1 z19z55z1 z19z55z3 z19z117z1 z19z117z3 z19z122z3 z19z91z1 z19z91z3 z19z182z3 
z11z53z3 z11z125z1 z11z55z1 z11z55z3 z11z117z1 z11z117z3 z11z122z3 z11z91z1 z11z91z3 z11z182z3 
z36z53z3 z36z55z3 z36z117z3 z36z122z3 z36z91z3 z36z182z3 
z58z53z3 z58z55z3 z58z117z3 z58z122z3 z58z91z3 z58z182z3 
z95z125z1 z95z55z1 z95z117z1 z95z91z1 
z129z144z2 z129z53z2 z129z125z2 z129z120z2 
z146z144z2 z146z53z2 z146z53z3 z146z125z2 z146z55z3 z146z117z3 z146z122z3 z146z91z3 z146z120z2 z146z182z3 
z163z144z2 z163z53z2 z163z125z2 z163z120z2 
z175z124z3 z175z54z3 z175z53z3 z175z55z3 z175z117z3 z175z122z3 z175z91z3 z175z182z3 
z189z53z3 z189z125z1 z189z55z1 z189z55z3 z189z117z1 z189z117z3 z189z122z3 z189z91z1 z189z91z3 z189z182z3 
z202z104z2 z202z51z2 z202z144z2 z202z53z2 z202z125z2 z202z120z2 
z104z124z1 z104z51z2 z104z108z1 z104z54z1 z104z144z2 z104z53z2 z104z125z1 z104z125z2 z104z55z1 z104z117z1 z104z91z1 z104z120z2 
z92z187z3 z92z54z3 z92z53z3 z92z55z3 z92z117z3 z92z122z3 z92z91z3 z92z182z3 
z124z108z1 z124z54z1 z124z54z3 z124z53z3 z124z125z1 z124z55z1 z124z55z3 z124z117z1 z124z117z3 z124z122z3 z124z91z1 z124z91z3 z124z182z3 
z51z187z3 z51z54z3 z51z144z2 z51z53z2 z51z53z3 z51z125z2 z51z55z3 z51z117z3 z51z122z3 z51z91z3 z51z120z2 z51z182z3 
z187z54z3 z187z53z3 z187z55z3 z187z117z3 z187z122z3 z187z91z3 z187z182z3 
z108z54z1 z108z125z1 z108z55z1 z108z117z1 z108z91z1 
z54z53z3 z54z125z1 z54z55z1 z54z55z3 z54z117z1 z54z117z3 z54z122z3 z54z91z1 z54z91z3 z54z182z3 
z144z53z2 z144z125z2 z144z120z2 
z53z125z2 z53z55z3 z53z117z3 z53z122z3 z53z91z3 z53z182z3 
z125z91z1 
z55z122z3 z55z91z1 z55z91z3 z55z182z3 
z117z122z3 z117z91z1 z117z91z3 z117z182z3 
z122z182z3 
z91z182z3 



End